16
hcbm1 r1 quinone fragment seed; approximate unoptimized coordinates
C    0.000   1.402   0.000
C    1.214   0.701   0.000
C    1.214  -0.701   0.000
C    0.000  -1.402   0.000
C   -1.214  -0.701   0.000
C   -1.214   0.701   0.000
O    2.380   1.370   0.000
O    2.380  -1.370   0.000
O   -2.380  -1.370   0.000
O   -2.380   1.370   0.000
H    0.000   2.490   0.000
H    0.000  -2.490   0.000
C    3.510   0.700   0.000
C   -3.510  -0.700   0.000
H    4.300   1.430   0.000
H   -4.300  -1.430   0.000
