24
hcbm1 r3 phenazine fragment seed; approximate unoptimized coordinates
C    0.000   1.405   0.000
C    1.215   0.702   0.000
C    1.215  -0.702   0.000
C    0.000  -1.405   0.000
C   -1.215  -0.702   0.000
C   -1.215   0.702   0.000
C    2.440   1.405   0.000
C    3.650   0.702   0.000
C    3.650  -0.702   0.000
C    2.440  -1.405   0.000
N    4.860   1.405   0.000
C    6.070   0.702   0.000
C    6.070  -0.702   0.000
N    4.860  -1.405   0.000
C   -2.440  -1.405   0.000
C   -3.650  -0.702   0.000
C   -3.650   0.702   0.000
C   -2.440   1.405   0.000
H    0.000   2.495   0.000
H    0.000  -2.495   0.000
H    2.440   2.495   0.000
H    2.440  -2.495   0.000
H   -2.440   2.495   0.000
H   -2.440  -2.495   0.000
