22
hcbm1 r1 scaffold repeat seed; approximate unoptimized coordinates
C    0.000   1.396   0.000
C    1.209   0.698   0.000
C    1.209  -0.698   0.000
C    0.000  -1.396   0.000
C   -1.209  -0.698   0.000
C   -1.209   0.698   0.000
C    2.540   1.470   0.000
C    3.720   0.760   0.000
C    3.720  -0.760   0.000
C    2.540  -1.470   0.000
C   -2.540  -1.470   0.000
C   -3.720  -0.760   0.000
C   -3.720   0.760   0.000
C   -2.540   1.470   0.000
C    0.000   2.800   0.000
C    0.000  -2.800   0.000
Cl   5.050   1.430   0.000
Cl   5.050  -1.430   0.000
Cl  -5.050   1.430   0.000
Cl  -5.050  -1.430   0.000
H    0.000   3.890   0.000
H    0.000  -3.890   0.000
