20
hcbm1 r2 imide fragment seed; approximate unoptimized coordinates
C    0.000   1.395   0.000
C    1.209   0.698   0.000
C    1.209  -0.698   0.000
C    0.000  -1.395   0.000
C   -1.209  -0.698   0.000
C   -1.209   0.698   0.000
C    2.420   1.410   0.000
N    3.540   0.710   0.000
C    3.540  -0.710   0.000
O    4.700   1.360   0.000
O    4.700  -1.360   0.000
C   -2.420  -1.410   0.000
N   -3.540  -0.710   0.000
C   -3.540   0.710   0.000
O   -4.700  -1.360   0.000
O   -4.700   1.360   0.000
H    0.000   2.480   0.000
H    0.000  -2.480   0.000
H   -2.160   2.240   0.000
H    2.160  -2.240   0.000
